CONTCAR_AuCO_01007_solvated_FFrelaxed.lammpstrj
1.000000
    20.0000     0.0000     0.0000
    0.0000    20.0000     0.0000
    0.0000     0.0000    23.0000
 Hw Ow Au C O 
 518 259 65 1 1 
Cartesian
7.027510 6.248540 2.105310
7.559190 5.021240 1.365370
18.827300 3.001840 5.152660
18.702400 2.520210 3.692910
12.192500 4.137260 15.416800
11.226900 4.418770 16.563400
11.074100 6.612500 18.753800
10.698400 7.930320 19.451200
14.111900 12.155300 19.260400
12.881300 11.724700 18.463300
17.220300 6.567510 6.688790
17.838700 6.853480 8.077740
2.001280 11.978400 16.260900
2.722720 13.321400 16.411600
19.002900 1.570410 18.553400
18.241500 0.546445 19.405000
9.223280 6.587630 2.332250
10.570800 6.047890 2.797770
1.748270 15.213800 16.259900
2.028760 15.046600 17.758000
14.774500 3.840260 3.960130
14.680500 4.499080 2.560920
10.137200 19.483600 13.601500
9.849490 0.965216 13.334300
1.863730 4.671150 13.592900
3.313730 4.762310 13.048700
5.747450 8.389920 0.651139
6.866220 9.426580 0.826110
19.695700 16.927200 13.047300
18.184600 17.107400 13.167100
6.757370 8.865960 21.696000
7.822540 8.500720 20.643400
11.598600 12.268000 16.397600
13.110600 12.298000 16.136200
16.274200 18.945700 17.257600
17.382600 0.008646 17.498800
18.071200 15.978200 20.906400
17.612600 17.364000 20.444800
13.911400 1.723840 7.958240
14.634100 1.918820 6.590710
15.004000 9.494770 21.994700
15.794300 10.222300 0.091738
18.675000 7.489740 11.457400
19.231400 8.819780 11.943200
1.470700 15.126700 20.445400
0.755194 16.144800 19.535600
2.899910 8.014490 6.374610
2.196170 8.679360 7.567920
7.482840 2.840450 18.839200
9.010790 2.767270 18.811100
12.456000 10.791000 0.622261
13.624600 9.831610 0.819497
16.392400 3.217340 0.422619
17.484500 3.172760 22.350200
19.860000 9.974530 8.121530
19.956200 8.529150 8.608450
11.158900 19.591300 2.974190
10.771300 1.083640 2.954040
1.131050 1.582350 18.890400
1.093730 1.704400 17.370900
13.643300 2.518980 14.385300
13.304400 1.044920 14.202900
18.029200 3.941820 10.197000
19.246200 4.075230 11.109200
9.395180 7.922320 17.390700
9.319600 7.544480 15.915600
4.386980 9.625030 22.467800
3.223760 9.069460 21.627200
19.265500 18.729300 20.441500
18.948000 19.986700 21.243800
8.216380 10.770900 3.021770
7.033190 11.737200 3.080690
7.290290 4.470130 22.121100
5.923600 4.416140 22.844900
3.494710 19.541000 18.905400
3.085050 19.802200 20.355400
17.154900 2.470110 19.716300
15.764300 2.743040 20.322400
16.141500 13.749200 18.784600
15.281700 13.924400 20.036300
3.641480 1.696790 15.153500
2.187710 1.283370 15.446800
3.081870 3.701700 18.727300
4.084070 4.454080 19.615600
7.809900 8.015030 12.761000
8.770710 6.848160 12.555000
1.632640 14.491700 8.463310
2.312710 14.120300 7.143200
3.981680 12.298500 20.010700
3.264380 11.196700 20.799900
19.874800 16.065400 22.824900
18.377100 15.876400 0.130112
16.195100 1.768010 11.907900
14.763500 2.043830 12.421100
2.278750 2.946990 5.251640
1.900420 4.321100 4.682590
12.235000 19.658400 21.939300
12.510800 18.164700 21.825000
2.766700 13.587000 21.187300
3.530770 14.872300 21.564700
9.804960 16.150300 18.955900
9.851950 17.678800 18.875000
5.349080 15.002500 12.696300
4.038660 15.723300 12.370300
15.718700 0.115790 2.910890
14.928500 19.650500 4.140740
1.689380 17.445100 6.633810
2.424910 16.353600 7.420010
1.791240 13.237200 5.440200
3.165700 13.288200 4.767860
9.850640 11.096400 18.879900
11.131400 11.569300 19.607700
4.230270 9.812790 16.546200
3.918420 11.310500 16.670700
11.493100 7.822590 15.221400
10.968400 6.376100 15.426400
0.345388 0.208791 10.033500
1.798490 19.832900 10.315000
12.638700 16.340100 12.441000
13.978400 15.606700 12.412700
8.421960 19.516400 11.925400
6.952920 19.118300 11.815100
18.856800 13.920900 2.228910
19.666000 12.728500 2.722860
17.592300 15.647100 18.505800
18.139500 14.216800 18.350100
14.931800 3.244730 15.670300
14.400700 4.464510 16.409400
18.812400 13.827700 6.218520
17.319300 13.551300 6.012250
18.526300 0.071222 6.746510
19.094500 0.625489 5.436120
0.638425 6.555850 5.682430
19.527500 6.497990 4.619510
5.664580 16.263200 0.603257
4.956200 17.538000 1.090630
13.363800 15.096200 4.298790
13.887800 15.498600 5.684510
4.210570 7.920640 12.001200
5.506350 8.169260 12.814600
12.079500 16.158900 21.300800
11.726100 16.918400 20.026200
1.600020 18.247900 19.500500
0.238705 18.401500 18.806400
8.613060 16.849400 5.707020
8.144510 17.547200 6.993590
19.948800 5.592260 14.817600
0.783622 4.706790 15.767700
19.647300 10.610900 1.801520
0.518724 10.878800 3.044890
15.772700 4.001540 8.794140
15.978100 5.280740 7.997070
10.517500 13.713800 12.794500
10.213200 12.853300 14.020200
0.060855 12.203000 13.032100
1.532120 12.496700 12.713600
6.978200 12.242300 13.638400
8.376060 12.510400 13.066400
15.503200 8.730950 12.211300
16.556400 9.779020 11.777900
9.311840 4.413820 21.508600
8.581620 4.543630 20.157200
1.832930 3.467330 9.578080
1.901140 2.987890 8.116580
2.252610 7.577590 20.079900
3.738940 7.312160 20.387700
16.310000 13.505100 3.954560
15.387200 14.382400 4.805960
18.549700 9.997650 3.859360
17.864200 8.841200 4.611340
7.864760 1.116680 16.276300
7.590700 2.510850 16.844900
6.514610 12.532300 20.168100
7.058960 13.204700 21.442300
15.030600 7.476370 13.938300
15.292200 6.245890 13.050900
19.429400 4.880560 6.133340
0.091516 3.753470 6.942390
15.968400 6.181480 0.719094
16.095600 7.667490 0.324623
10.425500 16.071700 12.627200
11.190600 15.785300 13.932400
15.315300 1.710970 4.429300
16.522600 2.623800 4.704190
8.504500 14.090900 19.993600
9.783770 13.516000 19.390000
11.342400 1.540570 18.132200
9.970210 0.855825 18.002000
0.448590 19.722800 2.074840
18.941000 19.940500 1.797110
4.379770 7.266270 1.985770
4.780650 6.232530 0.930170
12.237100 19.406300 15.648300
13.638600 19.159400 15.076300
18.645900 18.727000 16.706300
19.656700 17.585900 16.887400
7.297400 0.787206 22.280800
6.800710 2.252260 22.418100
5.292690 1.878490 8.634810
6.366750 0.893764 8.153930
2.174190 11.370700 4.622390
2.646310 10.993900 3.209120
4.816550 1.203440 0.186659
3.363570 1.103250 22.736400
2.067900 6.569950 9.804240
1.778230 5.507890 8.711860
5.778560 18.952700 13.838400
4.881100 18.819900 12.596400
19.637600 10.944500 22.634900
1.031340 10.337300 22.489800
1.305690 13.918100 1.763040
2.242260 14.403600 0.620826
2.346830 1.077820 6.551560
0.822156 1.142950 6.695500
18.520000 5.400760 2.548510
17.941100 6.626660 1.812300
18.234400 8.160890 21.011700
19.309300 9.197830 21.430800
7.529240 11.075400 15.965300
6.001770 11.034100 15.831600
10.953000 16.380100 17.077900
10.754800 15.054700 16.323700
2.586470 3.475000 16.407400
3.070820 4.933690 16.549900
17.088100 12.165200 0.025896
15.805300 12.856100 0.536294
11.365700 3.612170 5.163570
11.094100 2.511920 6.204800
14.327900 16.202200 17.268200
12.984400 15.728800 16.643000
0.635846 8.238480 17.400300
19.908100 8.389670 16.043300
7.077770 18.096500 9.337180
6.352120 18.047300 7.976820
9.338530 8.765950 1.591280
9.035970 9.951320 0.677319
5.811770 7.004640 20.209900
5.729940 6.083800 18.993600
14.140100 18.511200 17.807400
15.112700 18.312600 18.987200
8.585860 19.121300 21.299500
8.864070 19.055800 22.824500
9.134570 15.173100 4.204970
7.664890 15.644600 4.341350
5.904620 10.585800 18.483800
6.477840 10.009000 19.799600
8.994130 19.942000 3.934790
8.239160 18.924500 4.820980
4.638590 10.103200 11.577400
3.832120 11.372600 11.893600
11.460500 18.926700 6.668410
10.616100 17.682900 6.436440
13.822500 1.390400 19.473300
13.594400 1.439620 20.989100
14.463400 14.003000 15.907600
15.219400 12.657400 15.735500
15.576700 6.435080 20.187000
14.512600 7.511570 19.865300
0.101683 7.145300 1.861900
0.660875 8.344530 1.058090
13.399400 0.623100 0.562416
13.815500 0.990349 1.986270
16.841100 11.068600 3.496520
16.290000 11.820100 2.268820
0.913069 18.052600 22.211400
0.362227 18.073800 0.631360
2.890630 17.777100 12.221600
3.703910 17.909000 10.931500
18.532600 11.420300 10.859700
17.606000 12.241200 11.740000
18.626700 7.515380 14.018200
18.179200 7.070890 15.421800
16.915300 1.273930 1.093120
16.335000 19.841400 1.117940
1.892800 7.870430 11.899000
2.375270 6.425920 12.200100
3.226170 8.510560 14.629000
2.331370 8.494460 15.867000
12.906500 6.297430 22.486100
13.749700 5.804890 21.297000
11.296800 3.876820 2.759020
12.481000 4.822690 2.976400
13.167700 17.439800 6.658540
14.632400 17.573400 6.199970
2.579600 19.406800 4.034350
2.419620 18.716100 2.657700
10.085500 3.338240 14.807800
8.797350 2.488660 14.906800
17.206400 6.547060 21.951300
17.693700 5.450490 20.997900
0.624344 10.449700 17.225000
1.264920 11.154100 18.426900
7.669970 18.988400 16.369500
8.255190 19.214400 17.760800
15.873100 1.883570 14.832400
16.593000 1.315240 16.040000
15.583100 14.991500 0.946034
14.589200 14.781900 22.807900
0.738063 17.585500 4.482410
19.845800 18.267000 5.526620
17.761700 13.240700 13.625500
18.197400 14.576000 13.027200
0.185724 4.550340 21.839300
19.554900 4.063830 20.529300
17.201400 19.306800 13.044900
16.298900 18.100000 13.379900
10.418100 14.773100 21.062700
11.297800 14.112900 22.133300
2.588620 17.938900 0.667063
3.545840 19.163600 0.622628
4.527540 13.590500 3.217840
3.390540 14.600600 3.107900
5.063910 16.109800 21.177900
5.793580 14.788800 21.417000
7.961740 3.728340 5.316970
9.372060 3.746110 5.958340
15.646400 15.894800 21.037300
14.111600 15.970700 20.905300
14.052000 10.234300 19.853400
15.511900 9.777710 19.722200
12.064300 8.266360 17.022100
12.442900 9.706320 16.646800
7.700920 1.902890 6.462050
7.971150 0.454634 6.075930
14.462000 18.296300 0.299453
15.543100 18.536200 22.244700
18.321700 2.185050 15.274100
19.445300 3.026200 14.650300
5.720740 16.470800 3.156680
5.230830 15.475000 4.196010
0.816100 19.155700 12.387900
1.210000 18.604500 13.757300
17.316200 3.728740 17.027700
17.067100 3.977320 18.526300
14.229200 11.116700 3.392010
13.189600 10.153900 2.812730
6.346350 12.977600 1.479130
5.087240 12.154400 1.817360
8.729760 16.183300 1.030340
9.775010 15.333200 0.270541
12.854900 12.165800 21.634700
13.193800 12.937600 22.906000
10.376400 0.426428 21.454300
10.858100 1.015950 20.117100
17.291200 15.764700 4.309080
18.404900 16.831800 4.438690
6.464170 2.915340 3.648750
6.957860 4.331210 3.258720
8.004710 13.941800 0.286622
8.332490 12.447100 0.230178
0.065397 13.919200 19.210600
19.646600 12.576700 18.563500
6.981920 18.188200 19.465300
7.164660 19.699900 19.510400
12.352100 2.698850 11.040400
11.898000 2.561130 12.503400
5.754660 15.428800 16.727200
4.248620 15.731500 16.932300
5.288320 5.957880 16.613100
4.181860 6.819770 15.966000
10.759200 11.508300 22.644000
9.727540 11.401200 21.533700
14.819200 6.218860 18.083900
15.998800 5.401700 17.536700
3.845950 19.796300 9.042530
2.973860 18.599300 8.608810
12.555900 16.323000 2.411630
13.309600 15.102400 1.835760
2.620410 2.197370 1.490120
2.454450 3.083860 2.752290
11.626400 7.075230 13.364500
13.008700 6.789520 12.746000
11.113700 7.351320 0.795769
11.915500 8.610560 0.414146
5.227130 16.960800 18.816500
4.511310 17.762900 19.916900
0.510953 3.990100 18.426200
19.098200 4.604010 18.396400
13.070000 0.791593 17.334000
13.661300 2.192430 17.215900
11.220700 14.285100 2.850540
9.802210 14.148400 2.292930
8.166970 16.233500 12.466200
8.554960 17.403200 11.551900
17.219200 2.136750 8.554320
18.139800 3.273790 8.115530
15.408700 17.128300 9.759570
14.972500 16.735300 8.337710
18.988000 15.790000 15.141700
18.679300 15.209400 16.543400
4.436270 19.569800 5.758980
4.491090 0.756855 4.772750
5.072180 3.836050 7.528780
4.013960 3.622140 8.614580
14.699700 17.313500 15.237900
14.347500 17.093100 13.759500
2.818670 8.878270 3.825350
2.343900 7.996700 2.671170
10.549400 2.849720 0.956142
11.858300 2.180340 1.374130
0.703354 9.471700 10.452800
0.855933 10.474300 11.623700
5.064450 3.685370 13.649600
5.070880 5.004850 14.450600
3.067780 5.239890 0.072616
3.407680 3.958150 0.805872
4.129030 4.085830 5.483340
5.602120 4.307180 5.159250
18.494300 11.703200 6.790320
18.585700 10.291000 6.194790
5.428540 17.319000 5.603090
4.339680 17.410800 6.695560
5.151470 0.677889 18.154400
4.046770 0.950607 17.097900
15.674500 3.913860 12.317000
16.956400 4.728350 12.186400
0.105849 0.657848 14.940600
0.439742 19.401000 15.771000
2.888830 2.351070 20.844700
1.640620 1.600640 21.391900
14.221300 1.657730 10.237600
12.888100 1.019650 9.794670
9.403400 12.352900 16.469400
8.932750 13.717300 16.003800
5.243040 0.938955 2.641170
6.508970 0.618047 3.460490
0.224188 15.363300 5.418990
0.091921 14.173200 4.458080
7.446000 5.133190 17.857000
7.539140 6.545300 17.249500
11.022800 19.794500 9.571490
11.267100 19.870200 11.075000
19.906400 6.642970 9.292480
18.660700 6.001030 9.900120
1.170510 6.478830 0.060248
2.023560 6.383690 21.775500
16.475400 18.864700 6.013890
16.484200 17.940300 4.784390
7.978170 10.409800 18.170700
8.768320 9.724000 17.029800
16.541800 16.999100 0.864613
17.237600 16.554700 2.169830
7.439310 17.942100 1.095790
8.371350 18.475300 2.173380
6.761350 9.577450 14.414200
7.128790 8.312720 15.170800
16.296700 19.989700 8.843310
15.909400 0.481519 7.448190
1.485940 3.459470 11.778400
1.049360 2.164100 11.038700
3.390520 5.687710 5.375120
2.765820 6.825290 4.561280
18.520800 0.900707 11.908800
18.114600 1.537870 13.236600
16.013400 10.038100 16.103800
16.736900 10.958200 17.085400
17.956800 14.749600 7.967570
17.169600 15.886900 8.673630
16.714600 11.414300 19.301800
17.592500 10.159700 19.562000
9.387330 6.777120 20.903300
10.302600 7.743920 21.692400
5.555310 19.321800 16.329300
5.485480 17.796400 16.203200
3.032410 12.492300 1.383220
3.185170 11.000200 1.013740
16.405700 18.643500 11.204200
14.892300 18.537500 11.099300
7.237140 14.294300 13.103300
6.908790 15.084700 14.369900
14.152900 8.359910 15.946500
15.361700 7.482870 16.280600
16.642400 19.362900 20.466400
15.234200 19.981800 20.495700
6.386970 9.637700 3.930640
5.062730 8.846390 3.885420
18.569800 3.658760 1.482210
0.017418 3.666610 2.021510
19.163100 12.686300 21.072200
18.910700 13.603400 22.270900
0.447778 13.551000 10.540100
19.668900 14.462100 9.566960
14.185700 4.674510 0.179067
14.283300 3.290510 0.824785
11.683900 4.239570 22.072400
11.156600 2.832860 21.691300
6.839460 13.321200 15.875600
7.276380 13.605900 17.298200
8.371150 4.254250 13.700500
7.088080 5.026580 13.308100
11.964300 4.344860 19.009000
10.479200 4.194460 18.712100
3.217050 12.467200 14.143500
3.658920 13.398700 12.996900
12.536800 0.691769 6.579190
11.611800 0.483256 5.344300
11.734300 18.226700 1.110800
10.603400 17.548400 1.892790
14.301200 8.808250 4.282250
15.230300 7.630690 4.694400
5.421840 2.382740 19.222800
6.287900 1.719000 20.298400
8.722070 0.752588 8.461330
8.743230 0.182782 9.899480
9.816730 18.873300 15.770600
10.553700 17.630100 15.262200
17.313500 6.473280 3.877020
16.001700 5.723990 4.152080
0.046937 0.796956 22.911700
19.615200 2.149640 22.323600
17.899400 11.703200 15.137900
19.273300 12.093200 15.657300
5.415440 1.099690 13.560000
5.988570 1.797020 14.811900
15.670000 14.130600 12.850100
14.528700 13.617400 13.733500
0.016241 7.982740 19.770200
0.499948 6.649030 19.153600
7.713850 5.562600 2.154430
18.399400 2.325900 4.592390
11.289100 4.443200 15.596500
10.989400 7.567190 18.597000
13.251200 11.716500 19.361100
17.000700 6.861070 7.582790
2.782210 12.464500 15.956900
18.105800 1.241770 18.734700
10.146100 6.858690 2.471080
2.461810 15.046300 16.887600
14.513900 4.659320 3.503620
9.903790 0.107834 12.890600
2.378370 4.776400 12.778600
6.062260 9.242300 0.310755
18.901600 16.471900 13.351300
6.861880 8.559310 20.778300
12.421100 11.824700 16.639700
16.963300 19.470300 16.808900
17.381200 16.426600 20.396000
14.255900 1.248160 7.180680
15.238400 9.442910 22.936100
18.552300 8.153720 12.149500
1.174940 15.269400 19.529500
2.881090 8.824420 6.900410
8.271180 3.333350 18.549000
12.707500 9.990160 1.105130
17.310800 2.942760 0.275536
0.437979 9.364550 8.605760
10.803400 0.305742 3.531500
0.681355 2.043040 18.172400
13.483800 1.853050 13.699400
18.423800 4.531100 10.860500
8.759670 7.820630 16.661400
3.512200 9.861680 22.127900
18.533500 19.325100 20.667400
7.612630 11.188400 3.640450
6.821800 4.048080 22.860200
3.206330 19.082700 19.716100
16.645500 3.140140 20.201700
15.628900 13.242400 19.437400
2.940270 1.768900 15.824000
3.730100 3.568980 19.433600
8.436580 7.645170 12.121900
2.405570 14.698300 7.912760
3.101010 11.939700 20.203400
19.073000 15.606000 22.511800
15.394500 2.288660 11.724700
2.552130 3.611030 4.603720
12.512300 18.897300 22.470600
2.670760 14.426400 21.668400
10.393000 16.896600 18.741200
4.476120 14.858900 12.293500
14.907500 0.295058 3.414340
2.458500 17.302000 7.207280
2.690930 12.878000 5.512940
10.173400 11.696300 19.573600
4.615490 10.649600 16.850800
10.834400 7.181170 14.900200
1.009870 0.227079 10.725200
13.578300 16.473100 12.238800
7.802100 19.047000 11.343800
19.677600 13.699400 2.679450
17.487100 14.838900 17.975700
14.103600 3.648560 15.964400
18.032300 13.450200 6.667070
19.325000 0.069189 6.197940
19.677900 6.512100 5.573540
5.711330 16.952300 1.281570
13.724700 14.724400 5.120270
5.101020 8.304220 11.944500
12.421400 16.848300 20.704500
0.674759 17.953300 19.548100
8.722520 17.660800 6.226530
0.362102 4.716590 14.892600
19.606500 10.952500 2.705450
15.296800 4.780530 8.473790
10.262500 12.819100 13.054500
0.684915 12.264800 12.295200
7.432020 12.560000 12.847200
15.644600 9.489160 11.630700
8.704170 4.984260 21.011000
2.264020 3.648750 8.724110
2.899390 7.561230 20.805900
16.323600 14.151700 4.678910
17.884300 9.796580 4.542780
7.523600 1.993580 16.026800
6.716260 13.394600 20.544000
14.859500 7.117480 13.051300
19.270300 3.992150 6.499590
16.614700 6.879720 0.560978
11.127100 15.519300 13.003400
15.581800 2.510820 4.920480
9.391850 14.347800 19.700800
10.460400 1.487110 18.540100
19.798400 19.793800 1.367190
5.149330 6.908450 1.523200
13.116200 19.804900 15.586600
19.563300 18.545900 16.971800
6.534890 1.370320 22.110000
5.598510 0.960157 8.737120
2.049500 10.710000 3.923850
3.927480 1.018480 0.524182
1.741590 6.458300 8.898720
5.563040 19.387400 12.998700
0.154482 10.153600 22.849400
2.236280 14.102300 1.541440
1.620820 1.698350 6.711440
18.484000 6.375130 2.580700
18.725200 8.932910 20.701100
6.812390 11.215800 15.324400
11.210300 15.906600 16.268000
2.426230 4.297470 16.900900
16.246700 11.990100 0.474854
11.124000 3.477820 6.091060
13.943400 15.789200 16.475700
0.605055 8.784180 16.596200
6.926040 17.536400 8.566760
8.688680 9.463610 1.436660
5.270280 6.295310 19.812700
14.952400 18.059300 18.060300
8.802770 19.667700 22.071800
8.434860 15.341600 4.850540
6.560930 10.752100 19.177900
8.126630 19.530400 4.063590
4.252150 10.892400 11.165300
11.452200 17.973600 6.836000
14.278600 1.547360 20.317200
14.432600 13.146600 15.445400
14.656400 6.551600 19.885200
0.912565 7.512740 1.474890
13.547900 1.383800 1.137100
16.182000 11.734000 3.230980
0.931147 17.556700 0.035960
3.782950 17.637400 11.856200
17.599600 11.572600 11.042400
18.959700 7.227780 14.888000
16.953900 0.431114 1.574350
2.543910 7.200230 11.637900
3.261140 8.453760 15.589700
13.163800 5.492780 22.010600
11.592600 4.623650 3.306950
14.027200 16.975200 6.667400
1.958280 18.878500 3.498910
9.451640 2.831040 14.272900
17.263600 6.319360 21.006200
0.699629 11.315100 17.659000
8.406660 19.431600 16.823500
16.442000 2.145330 15.566100
14.815700 14.449900 0.693652
0.188266 17.394000 5.261920
17.594100 13.828100 12.875700
19.365500 4.184090 21.472800
17.030400 18.376500 12.808300
10.883700 14.958400 21.900800
3.310080 18.380000 1.147550
4.056890 14.269500 3.733440
5.212210 15.425900 21.853000
8.423790 3.784710 6.165520
14.834100 15.368400 21.143700
14.657600 9.521440 20.120200
12.505200 8.789500 16.333500
7.844850 1.024290 6.844010
15.425200 18.309200 0.186656
19.089000 2.124630 14.680500
5.876050 16.190900 4.077180
1.086270 18.337300 12.836300
17.439000 4.385920 17.726600
13.535800 10.498000 3.655790
5.814470 12.655500 2.226520
9.093360 15.286800 0.966840
12.474000 12.466000 22.472400
11.096500 0.946684 21.061300
17.562300 16.648200 4.000970
6.767100 3.758590 4.024060
7.599100 13.074900 0.128656
19.359400 13.245100 19.205000
7.667720 18.870400 19.524400
11.681800 2.995830 11.669000
5.138140 16.107500 17.056700
4.533310 5.913540 16.004900
9.817100 11.360800 22.498500
15.190000 5.868230 17.256900
3.295670 19.075800 9.388500
12.774100 15.393700 2.592660
2.255740 3.037920 1.802820
12.081600 6.943810 12.515500
11.588500 7.761580 0.059997
5.325660 17.263600 19.732900
19.969000 4.688080 18.827600
13.188900 1.621050 17.836600
10.348200 13.921100 3.061930
8.839590 16.515600 11.828100
17.420700 3.065790 8.730490
15.301900 16.360800 9.163180
19.368000 15.657000 16.022900
3.881870 0.233787 5.318610
4.975910 3.663950 8.480150
14.658900 17.765800 14.385600
3.082200 8.113690 3.289220
11.012300 2.504570 1.734230
0.787543 9.528800 11.419600
5.102530 4.646650 13.549800
3.825400 4.672480 0.294648
4.934890 4.487760 5.843590
18.593100 10.770200 7.039850
5.135350 17.857000 6.351330
4.495500 0.241757 17.586800
16.126100 4.685390 12.687400
0.823188 0.025494 15.131100
2.568970 1.478420 21.125800
13.431700 1.817020 9.691240
9.691340 13.109600 15.942900
5.739840 1.207740 3.425530
0.271900 14.397900 5.386920
6.918900 5.811380 17.419000
11.690300 19.609700 10.245000
18.985400 6.838720 9.526180
1.491870 5.847350 22.390600
15.903200 18.500900 5.330960
8.635780 10.579300 17.476700
16.950700 16.231500 1.294650
8.381140 18.043200 1.305770
6.775910 8.612420 14.325900
16.656700 0.129497 7.957790
0.915316 3.124430 11.066900
2.670340 6.334030 5.393500
17.770900 0.988268 12.513500
16.407500 10.922300 16.174900
18.057000 15.523500 8.545080
16.867700 10.501400 19.015800
9.609090 7.718700 21.011300
5.912970 18.578900 15.812800
3.414520 11.650300 1.690230
15.671600 18.732300 10.567100
6.944970 15.170900 13.408800
15.087200 8.207240 15.699900
15.702500 19.131500 20.497600
5.860350 8.985260 4.409580
19.096400 3.765690 2.294730
18.951000 12.665300 22.024300
0.281959 13.716800 9.602280
14.749600 4.138410 0.763865
10.905900 3.661560 22.128900
7.167770 14.031900 16.439400
8.024480 4.920280 13.085800
11.252400 4.726650 18.486200
3.239620 12.538400 13.175100
11.612800 0.734434 6.282140
11.491500 17.910500 1.996750
14.398200 8.086420 4.913350
6.159440 1.762090 19.336500
9.230560 0.748281 9.285640
10.549100 18.597300 15.196400
16.579400 6.415200 4.512430
0.048938 1.319020 22.088300
18.730500 12.124900 14.864900
5.289380 1.876720 14.138300
14.724200 13.922100 12.826500
0.693609 7.598830 19.184900
10.000000 10.000000 11.500000
13.600000 14.380000 10.080000
9.640000 17.290000 9.040000
7.840000 15.110000 9.740000
4.760000 13.160000 7.830000
5.040000 5.900000 10.290000
7.090000 10.360000 11.320000
10.840000 5.190000 10.670000
9.050000 2.990000 11.370000
16.490000 14.000000 10.230000
3.150000 13.270000 10.260000
5.810000 10.620000 8.710000
2.920000 10.970000 8.520000
10.720000 14.750000 9.910000
3.990000 8.450000 9.420000
9.860000 6.240000 5.280000
12.710000 5.890000 5.460000
11.640000 8.410000 4.580000
7.000000 6.600000 5.100000
10.580000 10.930000 3.710000
11.810000 12.200000 10.790000
8.790000 8.770000 4.410000
7.770000 3.260000 8.740000
14.940000 11.930000 5.920000
9.560000 5.440000 8.040000
11.350000 7.600000 7.340000
12.420000 5.070000 8.220000
14.220000 7.240000 7.510000
13.150000 9.770000 6.630000
12.080000 12.290000 5.760000
4.590000 10.850000 6.110000
16.010000 9.410000 6.800000
9.760000 7.720000 9.770000
10.290000 10.120000 6.470000
8.930000 12.560000 10.620000
17.290000 9.220000 9.430000
15.160000 14.250000 7.640000
13.370000 12.080000 8.340000
11.560000 9.910000 9.040000
9.220000 12.650000 5.600000
6.140000 3.350000 11.190000
10.500000 12.440000 8.180000
6.710000 5.790000 7.860000
8.490000 7.960000 7.160000
5.650000 8.320000 6.990000
7.430000 10.490000 6.300000
6.370000 13.010000 5.420000
12.300000 14.610000 7.480000
7.960000 5.550000 10.490000
8.700000 10.270000 8.880000
10.620000 2.910000 8.920000
6.570000 15.330000 7.140000
15.490000 7.040000 10.150000
7.630000 12.790000 8.010000
9.430000 14.960000 7.310000
13.710000 4.830000 10.850000
16.230000 11.720000 8.480000
14.430000 9.540000 9.200000
12.510000 16.930000 9.200000
14.720000 11.810000 10.950000
6.040000 12.930000 10.450000
6.890000 8.080000 9.580000
12.620000 7.370000 9.930000
4.960000 15.480000 9.560000
12.910000 9.630000 11.670000
9.959860 9.919990 13.508900
9.960040 9.990860 14.679300
